# 41668
param n := 25;
param s := 1;
set E :=  (0,17) (1,10) (1,16) (1,18) (2,3) (2,6) (2,18) (3,10) (4,14) (4,22) (4,23) (5,18) (5,19) (6,12) (6,16) (7,9) (7,17) (8,13) (9,11) (9,23) (10,16) (10,17) (12,21) (12,24) (13,19) (14,16) (14,18) (14,21) (14,24) (15,18) (16,21) (17,24) (20,24) (22,23);
